data/CVRPLIB/Vrp-Set-XML100/instances/XML100_2113_12.vrp
NAME : XML100_2113_12
COMMENT : Generated by Queiroga, Sadykov, Uchoa, and Vidal (2021)
TYPE : CVRP
DIMENSION : 101
EDGE_WEIGHT_TYPE : EUC_2D
CAPACITY : 8
NODE_COORD_SECTION
1    500  500 
2    294  245 
3    503  329 
4    995  80  
5    708  665 
6    33   893 
7    674  686 
8    819  880 
9    244  275 
10   697  495 
11   937  869 
12   330  86  
13   219  321 
14   282  827 
15   766  201 
16   304  444 
17   548  525 
18   784  256 
19   957  643 
20   869  342 
21   629  346 
22   269  583 
23   814  527 
24   434  627 
25   274  973 
26   533  943 
27   444  523 
28   188  599 
29   934  800 
30   772  720 
31   48   982 
32   157  812 
33   692  836 
34   79   346 
35   926  454 
36   755  63  
37   988  145 
38   834  106 
39   442  312 
40   770  755 
41   488  254 
42   869  660 
43   259  19  
44   835  615 
45   503  601 
46   539  175 
47   600  517 
48   735  122 
49   83   197 
50   190  906 
51   257  683 
52   756  902 
53   421  606 
54   545  885 
55   238  31  
56   738  407 
57   489  11  
58   680  103 
59   40   966 
60   108  983 
61   912  204 
62   833  601 
63   952  379 
64   925  930 
65   32   531 
66   525  651 
67   789  879 
68   838  54  
69   283  419 
70   672  209 
71   19   678 
72   51   730 
73   4    836 
74   367  992 
75   73   156 
76   453  627 
77   580  525 
78   920  643 
79   678  950 
80   826  594 
81   408  575 
82   773  494 
83   157  357 
84   684  835 
85   143  950 
86   546  105 
87   836  997 
88   680  85  
89   134  168 
90   944  515 
91   491  55  
92   385  935 
93   489  88  
94   199  276 
95   992  373 
96   448  602 
97   272  228 
98   852  993 
99   507  390 
100  135  348 
101  825  28  
DEMAND_SECTION
1    0   
2    1   
3    1   
4    1   
5    1   
6    1   
7    1   
8    1   
9    1   
10   1   
11   1   
12   1   
13   1   
14   1   
15   1   
16   1   
17   1   
18   1   
19   1   
20   1   
21   1   
22   1   
23   1   
24   1   
25   1   
26   1   
27   1   
28   1   
29   1   
30   1   
31   1   
32   1   
33   1   
34   1   
35   1   
36   1   
37   1   
38   1   
39   1   
40   1   
41   1   
42   1   
43   1   
44   1   
45   1   
46   1   
47   1   
48   1   
49   1   
50   1   
51   1   
52   1   
53   1   
54   1   
55   1   
56   1   
57   1   
58   1   
59   1   
60   1   
61   1   
62   1   
63   1   
64   1   
65   1   
66   1   
67   1   
68   1   
69   1   
70   1   
71   1   
72   1   
73   1   
74   1   
75   1   
76   1   
77   1   
78   1   
79   1   
80   1   
81   1   
82   1   
83   1   
84   1   
85   1   
86   1   
87   1   
88   1   
89   1   
90   1   
91   1   
92   1   
93   1   
94   1   
95   1   
96   1   
97   1   
98   1   
99   1   
100  1   
101  1   
DEPOT_SECTION
1
-1
EOF
