data/CVRPLIB/Vrp-Set-XML100/solutions/XML100_2113_12.sol
Route #1: 15 68 82 99 33 64 27 21
Route #2: 83 32 51 66 7 39 29 6
Route #3: 55 19 62 94 34 89 22 81
Route #4: 28 10 63 97 86 78 25 53
Route #5: 44 95 75 23 52 80 26
Route #6: 14 37 67 100 3 36 60 17
Route #7: 45 85 57 87 35 47 69 20
Route #8: 98 2 46 76 16
Route #9: 65 91 73 24 84 49 31 50
Route #10: 12 8 93 48 74 88 96 1
Route #11: 4 41 77 18 43 61 79 9
Route #12: 38 11 54 42 56 90 92 40
Route #13: 70 71 72 5 58 30 59 13
Cost 14802
